Route #1: 18 56 22 38 35 31 57 7 
Route #2: 45 37 28 25 62 63 10 16 50 
Route #3: 27 5 4 60 15 21 14 24 
Route #4: 6 44 64 26 46 34 
Route #5: 55 11 19 43 13 51 23 
Route #6: 29 39 3 36 59 61 47 
Route #7: 42 32 58 40 8 65 33 
Route #8: 41 20 1 52 53 54 17 
Route #9: 49 9 12 2 48 30 
cost 1531.65
execution_time 37.554
